DATASET = "thpack1";
INSTANCE = "055";

WIDTH = 233;
HEIGHT = 220;
LENGTH = 587;

NO_OF_SHAPES = 3;
size = [|
  100,94,28 |
  81,78,66 |
  111,49,21 |
|];

verticality = [|
  0,0,1 |
  1,1,1 |
  0,0,1 |
|];

box_count = [
  40,
  36,
  38,
];
